p cnf 37 108
a 10 21 0
e 1 2 3 4 5 6 7 8 9 11 12 13 14 15 16 17 18 19 20 22 23 24 25 26 27 28 29 30 31 32 33 34 35 36 37 0
-2 1 0
-2 1 0
-1 2 0
3 -2 -4 0
-3 2 -4 0
3 2 4 0
-3 -2 4 0
-5 -2 0
-5 -4 0
2 4 5 0
-6 7 -8 0
6 -7 -8 0
-6 -7 8 0
6 7 8 0
9 5 0
9 -8 0
-5 8 -9 0
-1 10 -11 0
1 -10 -11 0
-1 -10 11 0
1 10 11 0
-9 11 -12 0
9 -11 -12 0
-9 -11 12 0
9 11 12 0
13 -3 -14 0
-13 3 -14 0
13 3 14 0
-13 -3 14 0
15 -14 0
15 14 0
16 -3 0
16 -15 0
3 15 -16 0
-16 -17 0
16 -17 0
-19 -17 0
-19 -18 0
17 18 19 0
-4 -3 -20 0
4 3 -20 0
-4 3 20 0
4 -3 20 0
20 1 -21 0
-20 -1 -21 0
20 -1 21 0
-20 1 21 0
21 -22 0
-21 -22 0
16 14 -23 0
-16 -14 -23 0
16 -14 23 0
-16 14 23 0
24 22 0
24 -23 0
-22 23 -24 0
-19 24 -25 0
19 -24 -25 0
-19 -24 25 0
19 24 25 0
-26 16 0
-26 -3 0
-16 3 26 0
13 -26 -27 0
-13 26 -27 0
13 26 27 0
-13 -26 27 0
28 14 0
28 -27 0
-14 27 -28 0
25 -28 -29 0
-25 28 -29 0
25 28 29 0
-25 -28 29 0
31 6 0
31 7 0
-6 -7 -31 0
-30 -31 -32 0
30 31 -32 0
-30 31 32 0
30 -31 32 0
33 6 0
33 10 0
-6 -10 -33 0
34 -33 0
34 -7 0
33 7 -34 0
-35 -32 0
-35 34 0
32 -34 35 0
-29 -35 -36 0
29 35 -36 0
-29 35 36 0
29 -35 36 0
-37 12 0
-37 -36 0
-12 36 37 0
-22 14 34 0
33 25 20 0
-37 22 35 0
23 -8 32 0
-28 -37 23 10 24 6 0
22 -25 13 9 0
-8 -15 33 22 0
-20 -14 6 -2 37 18 0
-24 -27 23 -36 33 0
-36 29 -20 -21 3 -7 0
37 0
